118
51
61
59
84
176
40
166
134
135
207
143
115
137
190
66
104
161
105
170
145
190
104
140
182
64
92
52
126
276
318
55
0
102
81
86
41
108
52
53
89
91
66
112
80
165
68
66
85
77
67
73
154
62
145
78
42
81
109
62
141
155
39
98
144
42
146
59
376
75
232
43
108
172
246
105
88
341
223
75
134
73
123
129
91
77
207
83
43
70
92
30
102
53
66
56
94
120
145
284
